Grasp exp. instance_n_25_m_10_id_1.lp tipoLifted 0 szPool 5 nIteration 20 alpha 0.2 
Academic license - for non-commercial use only
Read LP format model from file ../input/instancesGenerated/instance_n_25_m_10_id_1.lp
Reading time = 0.00 seconds
: 10 rows, 25 columns, 122 nonzeros
Optimize a model with 10 rows, 25 columns and 122 nonzeros
Variable types: 0 continuous, 25 integer (25 binary)
Coefficient statistics:
  Matrix range     [1e+00, 1e+01]
  Objective range  [1e+00, 1e+01]
  Bounds range     [1e+00, 1e+00]
  RHS range        [2e+01, 4e+01]
Found heuristic solution: objective 77.0000000

Explored 0 nodes (0 simplex iterations) in 0.00 seconds
Thread count was 1 (of 8 available processors)

Solution count 1: 77 
No other solutions better than 0

Solution limit reached
Best objective 7.700000000000e+01, best bound -, gap -
C_1:	 7.00 x_2  = 1.000000 + 1.00 x_4  = 1.000000 + 6.00 x_5  = 0.000000 + 1.00 x_7  = 1.000000 + 3.00 x_9  = 1.000000 + 7.00 x_10  = 0.464903 + 7.00 x_12  = 0.000000 + 1.00 x_15  = 1.000000 + 10.00 x_17  = 0.528138 + 8.00 x_18  = 0.093163 + 8.00 x_25  = 0.839873 <= 29.00
C_2:	 1.00 x_3  = 1.000000 + 1.00 x_6  = 0.000000 + 7.00 x_8  = 0.000000 + 3.00 x_9  = 1.000000 + 8.00 x_10  = 0.464903 + 8.00 x_16  = 0.688537 + 9.00 x_18  = 0.093163 + 6.00 x_19  = 0.326043 + 2.00 x_20  = 1.000000 + 9.00 x_23  = 0.806529 + 3.00 x_24  = 0.000000 + 8.00 x_25  = 0.839873 <= 32.00
C_3:	 9.00 x_1  = 0.055599 + 4.00 x_2  = 1.000000 + 1.00 x_3  = 1.000000 + 1.00 x_8  = 0.000000 + 4.00 x_9  = 1.000000 + 6.00 x_12  = 0.000000 + 3.00 x_14  = 0.000000 + 2.00 x_20  = 1.000000 + 7.00 x_21  = 0.000000 + 1.00 x_22  = 1.000000 + 7.00 x_23  = 0.806529 + 7.00 x_25  = 0.839873 <= 26.00
C_4:	 6.00 x_4  = 1.000000 + 2.00 x_6  = 0.000000 + 2.00 x_7  = 1.000000 + 5.00 x_10  = 0.464903 + 2.00 x_12  = 0.000000 + 4.00 x_17  = 0.528138 + 4.00 x_19  = 0.326043 + 8.00 x_21  = 0.000000 + 9.00 x_23  = 0.806529 <= 21.00
C_5:	 9.00 x_1  = 0.055599 + 5.00 x_2  = 1.000000 + 6.00 x_7  = 1.000000 + 2.00 x_9  = 1.000000 + 8.00 x_10  = 0.464903 + 10.00 x_11  = 1.000000 + 5.00 x_12  = 0.000000 + 6.00 x_13  = 1.000000 + 7.00 x_14  = 0.000000 + 1.00 x_15  = 1.000000 + 6.00 x_18  = 0.093163 + 8.00 x_19  = 0.326043 + 2.00 x_22  = 1.000000 + 2.00 x_23  = 0.806529 + 6.00 x_24  = 0.000000 <= 41.00
C_6:	 2.00 x_2  = 1.000000 + 6.00 x_5  = 0.000000 + 7.00 x_6  = 0.000000 + 6.00 x_7  = 1.000000 + 4.00 x_9  = 1.000000 + 8.00 x_12  = 0.000000 + 9.00 x_17  = 0.528138 + 4.00 x_21  = 0.000000 + 6.00 x_22  = 1.000000 + 2.00 x_23  = 0.806529 <= 27.00
C_7:	 8.00 x_1  = 0.055599 + 5.00 x_3  = 1.000000 + 8.00 x_8  = 0.000000 + 5.00 x_9  = 1.000000 + 7.00 x_10  = 0.464903 + 1.00 x_15  = 1.000000 + 4.00 x_16  = 0.688537 + 10.00 x_17  = 0.528138 + 1.00 x_20  = 1.000000 + 6.00 x_21  = 0.000000 + 5.00 x_22  = 1.000000 + 4.00 x_23  = 0.806529 + 4.00 x_24  = 0.000000 + 6.00 x_25  = 0.839873 <= 37.00
C_8:	 2.00 x_3  = 1.000000 + 10.00 x_5  = 0.000000 + 1.00 x_7  = 1.000000 + 3.00 x_8  = 0.000000 + 10.00 x_9  = 1.000000 + 9.00 x_11  = 1.000000 + 3.00 x_12  = 0.000000 + 8.00 x_13  = 1.000000 + 5.00 x_14  = 0.000000 + 5.00 x_16  = 0.688537 + 1.00 x_17  = 0.528138 + 6.00 x_18  = 0.093163 + 4.00 x_19  = 0.326043 + 1.00 x_20  = 1.000000 + 10.00 x_21  = 0.000000 + 1.00 x_23  = 0.806529 + 4.00 x_25  = 0.839873 <= 41.00
C_9:	 7.00 x_3  = 1.000000 + 3.00 x_5  = 0.000000 + 8.00 x_9  = 1.000000 + 4.00 x_11  = 1.000000 + 2.00 x_15  = 1.000000 + 3.00 x_16  = 0.688537 + 9.00 x_19  = 0.326043 + 10.00 x_21  = 0.000000 + 7.00 x_24  = 0.000000 <= 26.00
C_10:	 5.00 x_1  = 0.055599 + 4.00 x_2  = 1.000000 + 4.00 x_5  = 0.000000 + 4.00 x_6  = 0.000000 + 4.00 x_7  = 1.000000 + 10.00 x_12  = 0.000000 + 10.00 x_13  = 1.000000 + 1.00 x_14  = 0.000000 + 10.00 x_15  = 1.000000 + 2.00 x_16  = 0.688537 + 5.00 x_18  = 0.093163 + 6.00 x_21  = 0.000000 + 7.00 x_25  = 0.839873 <= 36.00
Solution initial: 95.445434 
Number Constraints Used in Cover:10
GRASP Method!
Number cuts repeat: 0
value: 95.445434
Number Constraints Used in Cover:17
GRASP Method!
Number cuts repeat: 0
value: 95.445434
Number Constraints Used in Cover:24
GRASP Method!
Number cuts repeat: 0
value: 95.445434
Number Constraints Used in Cover:33
GRASP Method!
Number cuts repeat: 0
value: 95.445434
Number Constraints Used in Cover:40
GRASP Method!
Number cuts repeat: 0
value: 95.445434
Number Constraints Used in Cover:50
GRASP Method!
Number cuts repeat: 0
value: 95.445434
Number Constraints Used in Cover:62
GRASP Method!
Number cuts repeat: 0
value: 95.445434
Number Constraints Used in Cover:69
GRASP Method!
Number cuts repeat: 0
value: 95.445434
Number Constraints Used in Cover:80
GRASP Method!
Number cuts repeat: 0
value: 95.445434
Number Constraints Used in Cover:91
GRASP Method!
Number cuts repeat: 0
value: 95.445434
Number Constraints Used in Cover:105
GRASP Method!
Number cuts repeat: 0
value: 95.445434
Number Constraints Used in Cover:120
GRASP Method!
Number cuts repeat: 0
value: 95.445434
Number Constraints Used in Cover:133
GRASP Method!
Number cuts repeat: 0
value: 95.445434
Number Constraints Used in Cover:145
GRASP Method!
Number cuts repeat: 0
value: 95.445434
Number Constraints Used in Cover:156
GRASP Method!
Number cuts repeat: 0
value: 95.445434
Number Constraints Used in Cover:170
GRASP Method!
Number cuts repeat: 0
value: 95.445434
Number Constraints Used in Cover:176
GRASP Method!
Number cuts repeat: 0
value: 95.445434
Number Constraints Used in Cover:192
GRASP Method!
Number cuts repeat: 0
value: 95.445434
Number Constraints Used in Cover:203
GRASP Method!
Number cuts repeat: 0
value: 95.445434
Number Constraints Used in Cover:218
GRASP Method!
Number cuts repeat: 0
value: 95.445434
Number Constraints Used in Cover:239
GRASP Method!
Number cuts repeat: 0
value: 95.445434
Number Constraints Used in Cover:253
GRASP Method!
Number cuts repeat: 0
value: 95.445434
Number Constraints Used in Cover:261
GRASP Method!
Number cuts repeat: 0
value: 95.445434
Number Constraints Used in Cover:271
GRASP Method!
Number cuts repeat: 0
value: 95.445434
Number Constraints Used in Cover:282
GRASP Method!
Number cuts repeat: 0
value: 95.445434
Number Constraints Used in Cover:288
GRASP Method!
Number cuts repeat: 0
value: 95.445434
Number Constraints Used in Cover:298
GRASP Method!
Number cuts repeat: 0
value: 95.445434
Number Constraints Used in Cover:307
GRASP Method!
Number cuts repeat: 0
value: 95.445434
Number Constraints Used in Cover:312
GRASP Method!
Number cuts repeat: 0
value: 95.445434
Number Constraints Used in Cover:324
GRASP Method!
Number cuts repeat: 0
value: 95.445434
Number Constraints Used in Cover:327
GRASP Method!
Number cuts repeat: 0
value: 95.445434
Number Constraints Used in Cover:341
GRASP Method!
Number cuts repeat: 0
value: 95.445434
Number Constraints Used in Cover:345
GRASP Method!
Number cuts repeat: 0
value: 95.445434
Number Constraints Used in Cover:357
GRASP Method!
Number cuts repeat: 0
value: 95.445434
Number Constraints Used in Cover:367
GRASP Method!
Number cuts repeat: 0
value: 95.445434
Number Constraints Used in Cover:375
GRASP Method!
Number cuts repeat: 0
value: 95.445434
Number Constraints Used in Cover:390
GRASP Method!
Number cuts repeat: 0
value: 95.445434
Number Constraints Used in Cover:399
GRASP Method!
Number cuts repeat: 0
value: 95.445434
Number Constraints Used in Cover:409
GRASP Method!
Number cuts repeat: 0
value: 95.445434
Number Constraints Used in Cover:423
GRASP Method!
Number cuts repeat: 0
value: 95.445434
Number Constraints Used in Cover:430
GRASP Method!
Number cuts repeat: 0
value: 95.445434
Number Constraints Used in Cover:437
GRASP Method!
Number cuts repeat: 0
value: 95.445434
Number Constraints Used in Cover:451
GRASP Method!
Number cuts repeat: 0
value: 95.445434
Number Constraints Used in Cover:461
GRASP Method!
Number cuts repeat: 0
value: 95.445434
Number Constraints Used in Cover:472
GRASP Method!
Number cuts repeat: 0
value: 95.445434
Number Constraints Used in Cover:478
GRASP Method!
Number cuts repeat: 0
value: 95.445434
Number Constraints Used in Cover:483
GRASP Method!
Number cuts repeat: 0
value: 95.432580
Number Constraints Used in Cover:493
GRASP Method!
Number cuts repeat: 0
value: 95.430447
Number Constraints Used in Cover:504
GRASP Method!
Number cuts repeat: 0
value: 95.188653
Number Constraints Used in Cover:512
GRASP Method!
Number cuts repeat: 0
value: 95.188653
Number Constraints Used in Cover:523
GRASP Method!
Number cuts repeat: 0
value: 95.176305
Number Constraints Used in Cover:533
GRASP Method!
Number cuts repeat: 0
value: 95.176305
Number Constraints Used in Cover:545
GRASP Method!
Number cuts repeat: 0
value: 95.017834
Number Constraints Used in Cover:553
GRASP Method!
Number cuts repeat: 0
value: 95.017834
Number Constraints Used in Cover:562
GRASP Method!
Number cuts repeat: 0
value: 95.017834
Number Constraints Used in Cover:569
GRASP Method!
Number cuts repeat: 0
value: 95.017834
Number Constraints Used in Cover:573
GRASP Method!
Number cuts repeat: 0
value: 95.017834
Number Constraints Used in Cover:582
GRASP Method!
Number cuts repeat: 0
value: 95.017834
Number Constraints Used in Cover:587
GRASP Method!
Number cuts repeat: 0
value: 95.017834
Number Constraints Used in Cover:592
GRASP Method!
Number cuts repeat: 0
value: 95.017834
Number Constraints Used in Cover:604
GRASP Method!
Number cuts repeat: 0
value: 95.017834
Number Constraints Used in Cover:609
GRASP Method!
Number cuts repeat: 0
value: 95.017834
Number Constraints Used in Cover:612
GRASP Method!
Number cuts repeat: 0
value: 95.017834
Number Constraints Used in Cover:618
GRASP Method!
Number cuts repeat: 0
value: 95.017834
Number Constraints Used in Cover:626
GRASP Method!
Number cuts repeat: 0
value: 95.017834
Number Constraints Used in Cover:628
GRASP Method!
Number cuts repeat: 0
value: 95.017834
Number Constraints Used in Cover:636
GRASP Method!
Number cuts repeat: 0
value: 95.017834
Number Constraints Used in Cover:637
GRASP Method!
Number cuts repeat: 0
value: 95.017834
Number Constraints Used in Cover:644
GRASP Method!
Number cuts repeat: 0
value: 95.017834
Number Constraints Used in Cover:651
GRASP Method!
Number cuts repeat: 0
value: 95.017834
Number Constraints Used in Cover:658
GRASP Method!
Number cuts repeat: 0
value: 95.017834
Number Constraints Used in Cover:665
GRASP Method!
Number cuts repeat: 0
value: 95.017834
Number Constraints Used in Cover:672
GRASP Method!
Number cuts repeat: 0
value: 95.017834
Number Constraints Used in Cover:675
GRASP Method!
Number cuts repeat: 0
value: 95.017834
Number Constraints Used in Cover:681
GRASP Method!
Number cuts repeat: 0
value: 95.017834
Number Constraints Used in Cover:689
GRASP Method!
Number cuts repeat: 0
value: 95.017834
Number Constraints Used in Cover:693
GRASP Method!
Number cuts repeat: 0
value: 95.017834
Number Constraints Used in Cover:702
GRASP Method!
Number cuts repeat: 0
value: 95.017834
Number Constraints Used in Cover:703
GRASP Method!
Number cuts repeat: 0
value: 95.017834
Number Constraints Used in Cover:704
GRASP Method!
Number cuts repeat: 0
value: 95.017834
Number Constraints Used in Cover:712
GRASP Method!
Number cuts repeat: 0
value: 95.017834
Number Constraints Used in Cover:716
GRASP Method!
Number cuts repeat: 0
value: 95.017834
Number Constraints Used in Cover:722
GRASP Method!
Number cuts repeat: 0
value: 95.017834
Number Constraints Used in Cover:727
GRASP Method!
Number cuts repeat: 0
value: 95.017834
Number Constraints Used in Cover:732
GRASP Method!
Number cuts repeat: 0
value: 95.017834
Number Constraints Used in Cover:734
GRASP Method!
Number cuts repeat: 0
value: 95.017834
Number Constraints Used in Cover:735
GRASP Method!
Number cuts repeat: 0
value: 95.017834
Number Constraints Used in Cover:740
GRASP Method!
Number cuts repeat: 0
value: 95.017834
Number Constraints Used in Cover:743
GRASP Method!
Number cuts repeat: 0
value: 95.017834
Number Constraints Used in Cover:750
GRASP Method!
Number cuts repeat: 0
value: 95.017834
Number Constraints Used in Cover:756
GRASP Method!
Number cuts repeat: 0
value: 95.017834
Number Constraints Used in Cover:762
GRASP Method!
Number cuts repeat: 0
value: 95.017834
Number Constraints Used in Cover:768
GRASP Method!
Number cuts repeat: 0
value: 95.017834
Number Constraints Used in Cover:778
GRASP Method!
Number cuts repeat: 0
value: 95.017834
Number Constraints Used in Cover:790
GRASP Method!
Number cuts repeat: 0
value: 95.017834
Number Constraints Used in Cover:795
GRASP Method!
Number cuts repeat: 0
value: 95.017834
Number Constraints Used in Cover:807
GRASP Method!
Number cuts repeat: 0
value: 95.017834
Number Constraints Used in Cover:812
GRASP Method!
Number cuts repeat: 0
value: 95.017834
Number Constraints Used in Cover:816
GRASP Method!
Number cuts repeat: 0
value: 95.017834
Number Constraints Used in Cover:820
GRASP Method!
Number cuts repeat: 0
value: 95.017834
Number Constraints Used in Cover:827
GRASP Method!
Number cuts repeat: 0
value: 95.017834
Number Constraints Used in Cover:828
GRASP Method!
Number cuts repeat: 0
value: 95.017834
Number Constraints Used in Cover:835
GRASP Method!
Number cuts repeat: 0
value: 95.017834
Number Constraints Used in Cover:835
GRASP Method!
Number cuts repeat: 0
value: 95.017834
Number Constraints Used in Cover:837
GRASP Method!
Number cuts repeat: 0
value: 95.017834
Number Cuts Final: 834
